VALOR = 150;
MAXV = 200;
MAXN = 250;
MCAP = 1000;
CA = 4;
MinD = 3;
MaxD = 6;
MinB = 0;
% K = 2;
% T = 20;
TiposVeg = {VEG1, VEG2};
TiposNVeg = {ANV1, ANV2, ANV3};
    
PreciosVeg = 
    [|
    110, 120 |
    130, 130 |
    110, 140 |
    120, 110 |
    100, 120 |
    90, 100 |
    95, 120 |
    110, 130 |
    100, 110 |
    130, 140 |
    100, 110 |
    120, 100
    |];
    
PreciosNVeg = 
    [|
    130, 110, 115 |
    110, 90, 115 |
    130, 100, 95 |
    120, 120, 125 |
    150, 110, 105 |
    140, 80, 135 |
    130, 85, 130 |
    150, 100, 125 |
    130, 100, 115 |
    140, 100, 135 |
    120, 90, 100 |
    110, 120, 125 
    |];
    
durezaVeg = [8.8, 7.1];
durezaNVeg = [2.0, 2.9, 2.0];
cantidadVeg = [200, 200];
cantidadNVeg = [200, 200, 200];

% VALOR = 150;
% MAXV = 200;
% MAXN = 250;
% MCAP = 1000;
% CA = 5;
% MinD = 3;
% MaxD = 7;
% MinB = 10;
% TiposVeg = {VEG1, VEG2};
% TiposNVeg = {ANV1, ANV2, ANV3};
    
% PreciosVeg = 
%     [|
%     110, 120 |
%     130, 130 |
%     110, 140 |
%     120, 110 
%     |];
    
% PreciosNVeg = 
%     [|
%     130, 110, 115 |
%     110, 90, 115 |
%     130, 100, 95 |
%     120, 120, 125
%     |];
    
% durezaVeg = [6.8, 6.1];
% durezaNVeg = [2.0, 2.2, 2.5];
% cantidadVeg = [200, 200];
% cantidadNVeg = [200, 200, 200];